NAME : A-n39-k5.822.tour
COMMENT : Cost = 0_822
COMMENT : Found by LKH [Keld Helsgaun] Thu Nov  2 15:32:14 2017
TYPE : TOUR
DIMENSION : 43
TOUR_SECTION
1
3
23
4
8
17
33
11
40
9
12
27
35
38
36
25
18
42
22
31
14
29
28
37
7
41
32
2
24
21
30
6
16
39
10
43
15
20
26
34
13
19
5
-1
EOF
